c   #vars: 39   #clauses: 173   #literals: 514
c 
p cnf 39 173
-1 -2 0
-3 -4 0
-5 -6 0
-5 -7 22 36 0
10 11 25 26 0
19 -29 32 33 0
-8 -9 0
1 2 32 33 0
7 -11 -30 37 0
-10 -11 0
-12 -13 0
-14 -15 0
-16 -17 0
7 -22 30 31 0
5 6 22 -36 0
-20 -21 0
-3 -11 -16 -17 0
25 26 38 39 0
12 13 38 39 0
-23 -24 0
-25 -26 0
-27 -28 0
5 6 -23 36 0
12 13 27 28 0
14 15 27 28 0
18 27 28 -38 0
-30 -31 0
-32 -33 0
5 6 30 31 0
-34 -35 0
-11 25 26 37 0
5 6 16 17 0
-38 -39 0
-2 -18 0
3 4 14 15 0
-1 -23 0
-2 -24 0
-1 -32 0
-2 -33 0
-1 -34 0
-2 -35 0
-17 19 29 -32 0
-1 -38 0
-2 -39 0
-3 -14 0
-4 -15 0
16 17 -24 29 0
-3 -23 0
-4 -24 0
-3 -34 0
-4 -35 0
18 -27 38 39 0
-3 -38 0
-4 -39 0
-5 -16 0
-6 -17 0
-17 23 24 29 0
-5 -22 0
-3 -4 -16 -17 0
-5 -25 0
-6 -26 0
12 13 32 33 0
-20 -21 27 28 0
1 2 18 -38 0
-5 -30 0
-6 -31 0
12 13 19 -32 0
-7 25 26 37 0
-6 -36 0
7 -26 -30 37 0
-12 -17 19 29 0
8 9 23 24 0
-12 19 -24 29 0
3 4 34 35 0
-12 19 32 33 0
-3 -4 10 11 0
-6 7 22 -30 0
-5 -6 22 36 0
-7 -31 0
8 9 20 21 0
-6 22 -23 36 0
1 2 34 35 0
-8 -20 0
-9 -21 0
3 4 38 39 0
-8 -23 0
-9 -24 0
-1 18 27 28 0
-8 -27 0
-9 -28 0
-8 -34 0
-9 -35 0
7 22 -30 -36 0
20 21 -27 -28 0
-6 7 22 -37 0
16 17 -19 29 0
-5 -6 20 21 0
-10 -25 0
-11 -26 0
-7 22 -23 36 0
-10 -32 0
-11 -33 0
16 17 38 39 0
-10 -37 0
-12 -14 0
-13 -15 0
7 22 -36 -37 0
5 6 -7 22 0
-13 -19 0
12 13 20 21 0
-12 -20 0
-13 -21 0
20 21 34 35 0
-12 -27 0
-13 -28 0
25 26 34 35 0
-12 -32 0
-13 -33 0
20 21 30 31 0
-12 -38 0
-13 -39 0
-10 -11 27 28 0
10 11 -27 -28 0
1 2 38 39 0
-14 -27 0
-15 -28 0
7 30 31 -37 0
-14 -32 0
-15 -33 0
19 -24 29 -32 0
-16 -29 0
5 6 -22 36 0
3 4 23 24 0
-16 -30 0
-17 -31 0
1 2 23 24 0
-16 -38 0
-17 -39 0
-18 -28 0
8 9 34 35 0
-1 18 38 39 0
-4 -10 -16 -17 0
-18 -39 0
7 -11 -22 37 0
-22 23 24 36 0
12 13 14 15 0
7 -22 -26 37 0
-19 -33 0
14 15 32 33 0
1 2 18 -27 0
10 11 32 33 0
-20 -30 0
-21 -31 0
5 6 25 26 0
-20 -34 0
-21 -35 0
10 11 -26 37 0
3 4 -10 -11 0
-19 23 24 29 0
5 6 -20 -21 0
-23 -29 0
-5 23 24 36 0
8 9 27 28 0
-7 10 11 37 0
-24 -36 0
16 17 30 31 0
-25 -34 0
-26 -35 0
-10 -11 -16 -17 0
-25 -37 0
12 13 19 -29 0
-25 -38 0
-26 -39 0
